NAME        diet
ROWS
 N  obj
 E  c1
 E  c2
 E  c3
 E  c4
 E  c5
 E  c6
 E  c7
COLUMNS
    Roasted_Chicken  obj       0.84
    Roasted_Chicken  c1        277.4
    Roasted_Chicken  c2        21.9
    Roasted_Chicken  c3        1.8
    Roasted_Chicken  c4        77.4
    Roasted_Chicken  c7        42.2
    Spaghetti_W__Sauce  obj       0.78
    Spaghetti_W__Sauce  c1        358.2
    Spaghetti_W__Sauce  c2        80.2
    Spaghetti_W__Sauce  c3        2.3
    Spaghetti_W__Sauce  c4        3055.2
    Spaghetti_W__Sauce  c5        11.6
    Spaghetti_W__Sauce  c6        58.3
    Spaghetti_W__Sauce  c7        8.2
    Tomato,Red,Ripe,Raw  obj       0.27
    Tomato,Red,Ripe,Raw  c1        25.8
    Tomato,Red,Ripe,Raw  c2        6.2
    Tomato,Red,Ripe,Raw  c3        0.6
    Tomato,Red,Ripe,Raw  c4        766.3
    Tomato,Red,Ripe,Raw  c5        1.4
    Tomato,Red,Ripe,Raw  c6        5.7
    Tomato,Red,Ripe,Raw  c7        1
    Apple,Raw,W_Skin  obj       0.24
    Apple,Raw,W_Skin  c1        81.4
    Apple,Raw,W_Skin  c2        9.7
    Apple,Raw,W_Skin  c3        0.2
    Apple,Raw,W_Skin  c4        73.1
    Apple,Raw,W_Skin  c5        3.7
    Apple,Raw,W_Skin  c6        21
    Apple,Raw,W_Skin  c7        0.3
    Grapes    obj       0.32
    Grapes    c1        15.1
    Grapes    c2        3.4
    Grapes    c3        0.1
    Grapes    c4        24
    Grapes    c5        0.2
    Grapes    c6        4.1
    Grapes    c7        0.2
    Chocolate_Chip_Cookies  obj       0.03
    Chocolate_Chip_Cookies  c1        78.1
    Chocolate_Chip_Cookies  c2        6.2
    Chocolate_Chip_Cookies  c3        0.4
    Chocolate_Chip_Cookies  c4        101.8
    Chocolate_Chip_Cookies  c6        9.3
    Chocolate_Chip_Cookies  c7        0.9
    Lowfat_Milk  obj       0.23
    Lowfat_Milk  c1        121.2
    Lowfat_Milk  c2        296.7
    Lowfat_Milk  c3        0.1
    Lowfat_Milk  c4        500.2
    Lowfat_Milk  c6        11.7
    Lowfat_Milk  c7        8.1
    Raisin_Brn  obj       0.34
    Raisin_Brn  c1        115.1
    Raisin_Brn  c2        12.9
    Raisin_Brn  c3        16.8
    Raisin_Brn  c4        1250.2
    Raisin_Brn  c5        4
    Raisin_Brn  c6        27.9
    Raisin_Brn  c7        4
    Hotdog    obj       0.31
    Hotdog    c1        242.1
    Hotdog    c2        23.5
    Hotdog    c3        2.3
    Hotdog    c6        18
    Hotdog    c7        10.4
    Rgc1      c1        -1
    Rgc2      c2        -1
    Rgc3      c3        -1
    Rgc4      c4        -1
    Rgc5      c5        -1
    Rgc6      c6        -1
    Rgc7      c7        -1
RHS
    RHS_V     c1        2500
    RHS_V     c2        1600
    RHS_V     c3        30
    RHS_V     c4        50000
    RHS_V     c5        100
    RHS_V     c6        300
    RHS_V     c7        100
BOUNDS
 UP BOUND     Roasted_Chicken  10
 UP BOUND     Spaghetti_W__Sauce  10
 UP BOUND     Tomato,Red,Ripe,Raw  10
 UP BOUND     Apple,Raw,W_Skin  10
 UP BOUND     Grapes    10
 UP BOUND     Chocolate_Chip_Cookies  10
 UP BOUND     Lowfat_Milk  10
 UP BOUND     Raisin_Brn  10
 UP BOUND     Hotdog    10
 LO BOUND     Rgc1      -500
 UP BOUND     Rgc1      0
 LO BOUND     Rgc2      -800
 UP BOUND     Rgc2      0
 LO BOUND     Rgc3      -20
 UP BOUND     Rgc3      0
 LO BOUND     Rgc4      -45000
 UP BOUND     Rgc4      0
 LO BOUND     Rgc5      -75
 UP BOUND     Rgc5      0
 LO BOUND     Rgc6      -300
 UP BOUND     Rgc6      0
 LO BOUND     Rgc7      -50
 UP BOUND     Rgc7      0
ENDATA
